300
500
350
350
349
349
347
347
347
346
346
345
345
344
342
341
338
336
335
333
330
329
328
327
327
323
322
321
320
320
320
318
317
317
315
315
314
313
313
312
311
311
309
308
307
307
307
306
306
306
306
305
305
303
302
302
302
302
301
301
301
301
301
299
295
294
293
291
290
290
289
288
288
287
287
287
286
285
285
285
285
284
283
283
283
283
282
281
281
280
279
279
278
278
277
276
276
276
271
271
271
271
270
268
265
264
262
260
259
258
255
254
252
251
251
250
249
249
247
247
247
247
246
246
246
245
244
244
243
241
240
238
238
236
234
234
234
233
233
230
230
230
230
229
228
228
227
225
224
224
223
223
223
223
221
220
219
214
214
214
214
213
213
212
211
211
211
210
210
208
206
205
205
205
204
204
204
202
201
201
200
199
199
199
196
195
194
193
193
193
193
193
192
191
190
190
190
189
186
185
182
182
181
180
180
179
178
176
176
175
175
175
174
173
169
169
168
166
166
166
165
164
163
163
162
162
158
157
157
157
156
155
153
152
151
150
150
148
148
147
147
146
146
146
146
146
146
144
144
142
142
141
141
140
139
138
137
137
137
137
137
137
135
135
133
132
131
131
131
130
130
130
129
127
126
126
126
126
125
125
125
124
123
121
120
120
119
119
116
115
115
112
111
110
109
109
108
107
107
103
103
103
